row=6;
column=6;
Board=[|4,2,5,6,1,3|6,3,2,1,5,4|3,6,1,4,2,5|2,5,4,3,6,1|5,1,3,2,4,6|1,4,6,5,3,2|];
horizontal=[|1,0,0,1,0|1,1,1,0,1|0,1,0,1,0|0,1,1,0,1|1,0,1,0,0|0,0,1,1,1|];
vertical=[|0,0,1,1,0,0|1,0,1,0,1,0|1,1,0,1,0,1|0,1,1,1,1,0|1,0,0,0,1,1|];
